p cnf 842 1288
11 43 90 201 202 0
11 43 90 201 -202 0
11 43 90 -201 202 0
11 43 90 -201 -202 0
11 -43 90 203 204 0
11 -43 90 203 -204 0
11 -43 90 -203 204 0
11 -43 90 -203 -204 0
11 -43 -70 205 206 0
11 -43 -70 205 -206 0
11 -43 -70 -205 206 0
11 -43 -70 -205 -206 0
-11 84 98 207 208 0
-11 84 98 207 -208 0
-11 84 98 -207 208 0
-11 84 98 -207 -208 0
-11 -84 98 209 210 0
-11 -84 98 209 -210 0
-11 -84 98 -209 210 0
-11 -84 98 -209 -210 0
-11 15 -98 211 212 0
-11 15 -98 211 -212 0
-11 15 -98 -211 212 0
-11 15 -98 -211 -212 0
-15 28 -98 213 214 0
-15 28 -98 213 -214 0
-15 28 -98 -213 214 0
-15 28 -98 -213 -214 0
-15 -28 65 215 216 0
-15 -28 65 215 -216 0
-15 -28 65 -215 216 0
-15 -28 65 -215 -216 0
-11 -65 -98 217 218 0
-11 -65 -98 217 -218 0
-11 -65 -98 -217 218 0
-11 -65 -98 -217 -218 0
87 -90 138 219 220 0
87 -90 138 219 -220 0
87 -90 138 -219 220 0
87 -90 138 -219 -220 0
-87 -90 197 221 222 0
-87 -90 197 221 -222 0
-87 -90 197 -221 222 0
-87 -90 197 -221 -222 0
-87 138 -197 223 224 0
-87 138 -197 223 -224 0
-87 138 -197 -223 224 0
-87 138 -197 -223 -224 0
29 91 148 225 226 0
29 91 148 225 -226 0
29 91 148 -225 226 0
29 91 148 -225 -226 0
29 41 113 227 228 0
29 41 113 227 -228 0
29 41 113 -227 228 0
29 41 113 -227 -228 0
3 -41 113 229 230 0
3 -41 113 229 -230 0
3 -41 113 -229 230 0
3 -41 113 -229 -230 0
3 -91 -113 231 232 0
3 -91 -113 231 -232 0
3 -91 -113 -231 232 0
3 -91 -113 -231 -232 0
29 -91 148 233 234 0
29 -91 148 233 -234 0
29 -91 148 -233 234 0
29 -91 148 -233 -234 0
-29 60 104 235 236 0
-29 60 104 235 -236 0
-29 60 104 -235 236 0
-29 60 104 -235 -236 0
-29 -104 182 237 238 0
-29 -104 182 237 -238 0
-29 -104 182 -237 238 0
-29 -104 182 -237 -238 0
-29 60 -182 239 240 0
-29 60 -182 239 -240 0
-29 60 -182 -239 240 0
-29 60 -182 -239 -240 0
4 126 199 241 242 0
4 126 199 241 -242 0
4 126 199 -241 242 0
4 126 199 -241 -242 0
-4 106 199 243 244 0
-4 106 199 243 -244 0
-4 106 199 -243 244 0
-4 106 199 -243 -244 0
1 -106 199 245 246 0
1 -106 199 245 -246 0
1 -106 199 -245 246 0
1 -106 199 -245 -246 0
1 126 -199 247 248 0
1 126 -199 247 -248 0
1 126 -199 -247 248 0
1 126 -199 -247 -248 0
34 127 194 249 250 0
34 127 194 249 -250 0
34 127 194 -249 250 0
34 127 194 -249 -250 0
-34 127 194 251 252 0
-34 127 194 251 -252 0
-34 127 194 -251 252 0
-34 127 194 -251 -252 0
59 70 128 253 254 0
59 70 128 253 -254 0
59 70 128 -253 254 0
59 70 128 -253 -254 0
70 73 132 255 256 0
70 73 132 255 -256 0
70 73 132 -255 256 0
70 73 132 -255 -256 0
-59 -73 132 257 258 0
-59 -73 132 257 -258 0
-59 -73 132 -257 258 0
-59 -73 132 -257 -258 0
-59 128 -132 259 260 0
-59 128 -132 259 -260 0
-59 128 -132 -259 260 0
-59 128 -132 -259 -260 0
-70 121 128 261 262 0
-70 121 128 261 -262 0
-70 121 128 -261 262 0
-70 121 128 -261 -262 0
105 106 -128 263 264 0
105 106 -128 263 -264 0
105 106 -128 -263 264 0
105 106 -128 -263 -264 0
-105 106 -128 265 266 0
-105 106 -128 265 -266 0
-105 106 -128 -265 266 0
-105 106 -128 -265 -266 0
50 62 193 267 268 0
50 62 193 267 -268 0
50 62 193 -267 268 0
50 62 193 -267 -268 0
-106 193 -194 269 270 0
-106 193 -194 269 -270 0
-106 193 -194 -269 270 0
-106 193 -194 -269 -270 0
-106 -193 -194 271 272 0
-106 -193 -194 271 -272 0
-106 -193 -194 -271 272 0
-106 -193 -194 -271 -272 0
-50 -106 -128 273 274 0
-50 -106 -128 273 -274 0
-50 -106 -128 -273 274 0
-50 -106 -128 -273 -274 0
121 -126 -127 275 276 0
121 -126 -127 275 -276 0
121 -126 -127 -275 276 0
121 -126 -127 -275 -276 0
91 118 190 277 278 0
91 118 190 277 -278 0
91 118 190 -277 278 0
91 118 190 -277 -278 0
91 149 -190 279 280 0
91 149 -190 279 -280 0
91 149 -190 -279 280 0
91 149 -190 -279 -280 0
-91 118 147 281 282 0
-91 118 147 281 -282 0
-91 118 147 -281 282 0
-91 118 147 -281 -282 0
10 107 147 283 284 0
10 107 147 283 -284 0
10 107 147 -283 284 0
10 107 147 -283 -284 0
10 -107 149 285 286 0
10 -107 149 285 -286 0
10 -107 149 -285 286 0
10 -107 149 -285 -286 0
-10 -118 147 287 288 0
-10 -118 147 287 -288 0
-10 -118 147 -287 288 0
-10 -118 147 -287 -288 0
-60 -147 192 289 290 0
-60 -147 192 289 -290 0
-60 -147 192 -289 290 0
-60 -147 192 -289 -290 0
-147 166 -192 291 292 0
-147 166 -192 291 -292 0
-147 166 -192 -291 292 0
-147 166 -192 -291 -292 0
35 -166 -192 293 294 0
35 -166 -192 293 -294 0
35 -166 -192 -293 294 0
35 -166 -192 -293 -294 0
-35 -166 -192 295 296 0
-35 -166 -192 295 -296 0
-35 -166 -192 -295 296 0
-35 -166 -192 -295 -296 0
68 71 83 297 298 0
68 71 83 297 -298 0
68 71 83 -297 298 0
68 71 83 -297 -298 0
-68 71 -149 299 300 0
-68 71 -149 299 -300 0
-68 71 -149 -299 300 0
-68 71 -149 -299 -300 0
-71 83 191 301 302 0
-71 83 191 301 -302 0
-71 83 191 -301 302 0
-71 83 191 -301 -302 0
-83 -149 191 303 304 0
-83 -149 191 303 -304 0
-83 -149 191 -303 304 0
-83 -149 191 -303 -304 0
-60 -126 -191 305 306 0
-60 -126 -191 305 -306 0
-60 -126 -191 -305 306 0
-60 -126 -191 -305 -306 0
-1 137 145 307 308 0
-1 137 145 307 -308 0
-1 137 145 -307 308 0
-1 137 145 -307 -308 0
113 137 -145 309 310 0
113 137 -145 309 -310 0
113 137 -145 -309 310 0
113 137 -145 -309 -310 0
-113 -145 179 311 312 0
-113 -145 179 311 -312 0
-113 -145 179 -311 312 0
-113 -145 179 -311 -312 0
-1 -137 179 313 314 0
-1 -137 179 313 -314 0
-1 -137 179 -313 314 0
-1 -137 179 -313 -314 0
105 136 -179 315 316 0
105 136 -179 315 -316 0
105 136 -179 -315 316 0
105 136 -179 -315 -316 0
-105 136 -179 317 318 0
-105 136 -179 317 -318 0
-105 136 -179 -317 318 0
-105 136 -179 -317 -318 0
41 153 155 319 320 0
41 153 155 319 -320 0
41 153 155 -319 320 0
41 153 155 -319 -320 0
-41 153 154 321 322 0
-41 153 154 321 -322 0
-41 153 154 -321 322 0
-41 153 154 -321 -322 0
21 94 155 323 324 0
21 94 155 323 -324 0
21 94 155 -323 324 0
21 94 155 -323 -324 0
21 129 154 325 326 0
21 129 154 325 -326 0
21 129 154 -325 326 0
21 129 154 -325 -326 0
21 -129 -153 327 328 0
21 -129 -153 327 -328 0
21 -129 -153 -327 328 0
21 -129 -153 -327 -328 0
-21 -153 155 329 330 0
-21 -153 155 329 -330 0
-21 -153 155 -329 330 0
-21 -153 155 -329 -330 0
65 154 -155 331 332 0
65 154 -155 331 -332 0
65 154 -155 -331 332 0
65 154 -155 -331 -332 0
-65 140 -155 333 334 0
-65 140 -155 333 -334 0
-65 140 -155 -333 334 0
-65 140 -155 -333 -334 0
-65 -121 -140 335 336 0
-65 -121 -140 335 -336 0
-65 -121 -140 -335 336 0
-65 -121 -140 -335 -336 0
-121 -148 -154 337 338 0
-121 -148 -154 337 -338 0
-121 -148 -154 -337 338 0
-121 -148 -154 -337 -338 0
31 -136 186 339 340 0
31 -136 186 339 -340 0
31 -136 186 -339 340 0
31 -136 186 -339 -340 0
-31 120 145 341 342 0
-31 120 145 341 -342 0
-31 120 145 -341 342 0
-31 120 145 -341 -342 0
120 -145 198 343 344 0
120 -145 198 343 -344 0
120 -145 198 -343 344 0
120 -145 198 -343 -344 0
-31 -120 186 345 346 0
-31 -120 186 345 -346 0
-31 -120 186 -345 346 0
-31 -120 186 -345 -346 0
23 -136 -186 347 348 0
23 -136 -186 347 -348 0
23 -136 -186 -347 348 0
23 -136 -186 -347 -348 0
-23 -186 198 349 350 0
-23 -186 198 349 -350 0
-23 -186 198 -349 350 0
-23 -186 198 -349 -350 0
44 135 -148 351 352 0
44 135 -148 351 -352 0
44 135 -148 -351 352 0
44 135 -148 -351 -352 0
-44 135 -148 353 354 0
-44 135 -148 353 -354 0
-44 135 -148 -353 354 0
-44 135 -148 -353 -354 0
44 74 -135 355 356 0
44 74 -135 355 -356 0
44 74 -135 -355 356 0
44 74 -135 -355 -356 0
24 62 -74 357 358 0
24 62 -74 357 -358 0
24 62 -74 -357 358 0
24 62 -74 -357 -358 0
-24 -74 -198 359 360 0
-24 -74 -198 359 -360 0
-24 -74 -198 -359 360 0
-24 -74 -198 -359 -360 0
44 -62 -74 361 362 0
44 -62 -74 361 -362 0
44 -62 -74 -361 362 0
44 -62 -74 -361 -362 0
-44 -135 -198 363 364 0
-44 -135 -198 363 -364 0
-44 -135 -198 -363 364 0
-44 -135 -198 -363 -364 0
-138 151 178 365 366 0
-138 151 178 365 -366 0
-138 151 178 -365 366 0
-138 151 178 -365 -366 0
-138 -151 178 367 368 0
-138 -151 178 367 -368 0
-138 -151 178 -367 368 0
-138 -151 178 -367 -368 0
8 -60 97 369 370 0
8 -60 97 369 -370 0
8 -60 97 -369 370 0
8 -60 97 -369 -370 0
-8 32 97 371 372 0
-8 32 97 371 -372 0
-8 32 97 -371 372 0
-8 32 97 -371 -372 0
-8 -32 -178 373 374 0
-8 -32 -178 373 -374 0
-8 -32 -178 -373 374 0
-8 -32 -178 -373 -374 0
52 -97 108 375 376 0
52 -97 108 375 -376 0
52 -97 108 -375 376 0
52 -97 108 -375 -376 0
-52 108 -178 377 378 0
-52 108 -178 377 -378 0
-52 108 -178 -377 378 0
-52 108 -178 -377 -378 0
26 -108 137 379 380 0
26 -108 137 379 -380 0
26 -108 137 -379 380 0
26 -108 137 -379 -380 0
38 118 123 381 382 0
38 118 123 381 -382 0
38 118 123 -381 382 0
38 118 123 -381 -382 0
38 -118 123 383 384 0
38 -118 123 383 -384 0
38 -118 123 -383 384 0
38 -118 123 -383 -384 0
-4 38 -118 385 386 0
-4 38 -118 385 -386 0
-4 38 -118 -385 386 0
-4 38 -118 -385 -386 0
38 45 -123 387 388 0
38 45 -123 387 -388 0
38 45 -123 -387 388 0
38 45 -123 -387 -388 0
26 -45 -123 389 390 0
26 -45 -123 389 -390 0
26 -45 -123 -389 390 0
26 -45 -123 -389 -390 0
26 27 -38 391 392 0
26 27 -38 391 -392 0
26 27 -38 -391 392 0
26 27 -38 -391 -392 0
-27 -38 -137 393 394 0
-27 -38 -137 393 -394 0
-27 -38 -137 -393 394 0
-27 -38 -137 -393 -394 0
7 112 162 395 396 0
7 112 162 395 -396 0
7 112 162 -395 396 0
7 112 162 -395 -396 0
-26 130 -162 397 398 0
-26 130 -162 397 -398 0
-26 130 -162 -397 398 0
-26 130 -162 -397 -398 0
-41 130 -162 399 400 0
-41 130 -162 399 -400 0
-41 130 -162 -399 400 0
-41 130 -162 -399 -400 0
112 -130 -162 401 402 0
112 -130 -162 401 -402 0
112 -130 -162 -401 402 0
112 -130 -162 -401 -402 0
-26 -112 177 403 404 0
-26 -112 177 403 -404 0
-26 -112 177 -403 404 0
-26 -112 177 -403 -404 0
7 -112 -177 405 406 0
7 -112 -177 405 -406 0
7 -112 -177 -405 406 0
7 -112 -177 -405 -406 0
-7 -108 176 407 408 0
-7 -108 176 407 -408 0
-7 -108 176 -407 408 0
-7 -108 176 -407 -408 0
48 50 161 409 410 0
48 50 161 409 -410 0
48 50 161 -409 410 0
48 50 161 -409 -410 0
-7 -50 161 411 412 0
-7 -50 161 411 -412 0
-7 -50 161 -411 412 0
-7 -50 161 -411 -412 0
48 -161 -176 413 414 0
48 -161 -176 413 -414 0
48 -161 -176 -413 414 0
48 -161 -176 -413 -414 0
-48 -97 156 415 416 0
-48 -97 156 415 -416 0
-48 -97 156 -415 416 0
-48 -97 156 -415 -416 0
-48 -156 -176 417 418 0
-48 -156 -176 417 -418 0
-48 -156 -176 -417 418 0
-48 -156 -176 -417 -418 0
-28 -73 -124 419 420 0
-28 -73 -124 419 -420 0
-28 -73 -124 -419 420 0
-28 -73 -124 -419 -420 0
97 104 -114 421 422 0
97 104 -114 421 -422 0
97 104 -114 -421 422 0
97 104 -114 -421 -422 0
-10 -19 175 423 424 0
-10 -19 175 423 -424 0
-10 -19 175 -423 424 0
-10 -19 175 -423 -424 0
89 133 -175 425 426 0
89 133 -175 425 -426 0
89 133 -175 -425 426 0
89 133 -175 -425 -426 0
-19 -89 133 427 428 0
-19 -89 133 427 -428 0
-19 -89 133 -427 428 0
-19 -89 133 -427 -428 0
69 130 -189 429 430 0
69 130 -189 429 -430 0
69 130 -189 -429 430 0
69 130 -189 -429 -430 0
25 -69 130 431 432 0
25 -69 130 431 -432 0
25 -69 130 -431 432 0
25 -69 130 -431 -432 0
-13 63 -139 433 434 0
-13 63 -139 433 -434 0
-13 63 -139 -433 434 0
-13 63 -139 -433 -434 0
-13 -20 -63 435 436 0
-13 -20 -63 435 -436 0
-13 -20 -63 -435 436 0
-13 -20 -63 -435 -436 0
-120 166 197 437 438 0
-120 166 197 437 -438 0
-120 166 197 -437 438 0
-120 166 197 -437 -438 0
-6 22 -171 439 440 0
-6 22 -171 439 -440 0
-6 22 -171 -439 440 0
-6 22 -171 -439 -440 0
39 -132 184 441 442 0
39 -132 184 441 -442 0
39 -132 184 -441 442 0
39 -132 184 -441 -442 0
39 -62 184 443 444 0
39 -62 184 443 -444 0
39 -62 184 -443 444 0
39 -62 184 -443 -444 0
-5 -72 -139 445 446 0
-5 -72 -139 445 -446 0
-5 -72 -139 -445 446 0
-5 -72 -139 -445 -446 0
-94 109 -180 447 448 0
-94 109 -180 447 -448 0
-94 109 -180 -447 448 0
-94 109 -180 -447 -448 0
-94 -180 -187 449 450 0
-94 -180 -187 449 -450 0
-94 -180 -187 -449 450 0
-94 -180 -187 -449 -450 0
-109 -180 -187 451 452 0
-109 -180 -187 451 -452 0
-109 -180 -187 -451 452 0
-109 -180 -187 -451 -452 0
140 160 -173 453 454 0
140 160 -173 453 -454 0
140 160 -173 -453 454 0
140 160 -173 -453 -454 0
-64 -160 -173 455 456 0
-64 -160 -173 455 -456 0
-64 -160 -173 -455 456 0
-64 -160 -173 -455 -456 0
-71 116 -125 457 458 0
-71 116 -125 457 -458 0
-71 116 -125 -457 458 0
-71 116 -125 -457 -458 0
-24 -39 132 459 460 0
-24 -39 132 459 -460 0
-24 -39 132 -459 460 0
-24 -39 132 -459 -460 0
46 57 -78 461 462 0
46 57 -78 461 -462 0
46 57 -78 -461 462 0
46 57 -78 -461 -462 0
74 144 185 463 464 0
74 144 185 463 -464 0
74 144 185 -463 464 0
74 144 185 -463 -464 0
-14 -27 -151 465 466 0
-14 -27 -151 465 -466 0
-14 -27 -151 -465 466 0
-14 -27 -151 -465 -466 0
117 -165 -177 467 468 0
117 -165 -177 467 -468 0
117 -165 -177 -467 468 0
117 -165 -177 -467 -468 0
19 -117 195 469 470 0
19 -117 195 469 -470 0
19 -117 195 -469 470 0
19 -117 195 -469 -470 0
-19 -27 58 471 472 0
-19 -27 58 471 -472 0
-19 -27 58 -471 472 0
-19 -27 58 -471 -472 0
-27 -117 -195 473 474 0
-27 -117 -195 473 -474 0
-27 -117 -195 -473 474 0
-27 -117 -195 -473 -474 0
40 159 177 475 476 0
40 159 177 475 -476 0
40 159 177 -475 476 0
40 159 177 -475 -476 0
25 -40 159 477 478 0
25 -40 159 477 -478 0
25 -40 159 -477 478 0
25 -40 159 -477 -478 0
61 114 168 479 480 0
61 114 168 479 -480 0
61 114 168 -479 480 0
61 114 168 -479 -480 0
25 45 122 481 482 0
25 45 122 481 -482 0
25 45 122 -481 482 0
25 45 122 -481 -482 0
4 -45 122 483 484 0
4 -45 122 483 -484 0
4 -45 122 -483 484 0
4 -45 122 -483 -484 0
14 76 169 485 486 0
14 76 169 485 -486 0
14 76 169 -485 486 0
14 76 169 -485 -486 0
57 76 -169 487 488 0
57 76 -169 487 -488 0
57 76 -169 -487 488 0
57 76 -169 -487 -488 0
15 119 174 489 490 0
15 119 174 489 -490 0
15 119 174 -489 490 0
15 119 174 -489 -490 0
157 165 171 491 492 0
157 165 171 491 -492 0
157 165 171 -491 492 0
157 165 171 -491 -492 0
157 -171 -189 493 494 0
157 -171 -189 493 -494 0
157 -171 -189 -493 494 0
157 -171 -189 -493 -494 0
144 -154 -175 495 496 0
144 -154 -175 495 -496 0
144 -154 -175 -495 496 0
144 -154 -175 -495 -496 0
78 109 110 497 498 0
78 109 110 497 -498 0
78 109 110 -497 498 0
78 109 110 -497 -498 0
-42 125 170 499 500 0
-42 125 170 499 -500 0
-42 125 170 -499 500 0
-42 125 170 -499 -500 0
27 -99 -103 501 502 0
27 -99 -103 501 -502 0
27 -99 -103 -501 502 0
27 -99 -103 -501 -502 0
-122 164 167 503 504 0
-122 164 167 503 -504 0
-122 164 167 -503 504 0
-122 164 167 -503 -504 0
100 103 -122 505 506 0
100 103 -122 505 -506 0
100 103 -122 -505 506 0
100 103 -122 -505 -506 0
100 -103 -164 507 508 0
100 -103 -164 507 -508 0
100 -103 -164 -507 508 0
100 -103 -164 -507 -508 0
-67 -100 167 509 510 0
-67 -100 167 509 -510 0
-67 -100 167 -509 510 0
-67 -100 167 -509 -510 0
66 152 185 511 512 0
66 152 185 511 -512 0
66 152 185 -511 512 0
66 152 185 -511 -512 0
81 176 -185 513 514 0
81 176 -185 513 -514 0
81 176 -185 -513 514 0
81 176 -185 -513 -514 0
66 81 -185 515 516 0
66 81 -185 515 -516 0
66 81 -185 -515 516 0
66 81 -185 -515 -516 0
-81 152 -185 517 518 0
-81 152 -185 517 -518 0
-81 152 -185 -517 518 0
-81 152 -185 -517 -518 0
42 51 68 519 520 0
42 51 68 519 -520 0
42 51 68 -519 520 0
42 51 68 -519 -520 0
-39 42 -68 521 522 0
-39 42 -68 521 -522 0
-39 42 -68 -521 522 0
-39 42 -68 -521 -522 0
-6 -81 174 523 524 0
-6 -81 174 523 -524 0
-6 -81 174 -523 524 0
-6 -81 174 -523 -524 0
33 54 171 525 526 0
33 54 171 525 -526 0
33 54 171 -525 526 0
33 54 171 -525 -526 0
-20 33 -54 527 528 0
-20 33 -54 527 -528 0
-20 33 -54 -527 528 0
-20 33 -54 -527 -528 0
-14 -66 -133 529 530 0
-14 -66 -133 529 -530 0
-14 -66 -133 -529 530 0
-14 -66 -133 -529 -530 0
28 -119 -143 531 532 0
28 -119 -143 531 -532 0
28 -119 -143 -531 532 0
28 -119 -143 -531 -532 0
-119 -143 192 533 534 0
-119 -143 192 533 -534 0
-119 -143 192 -533 534 0
-119 -143 192 -533 -534 0
-3 164 169 535 536 0
-3 164 169 535 -536 0
-3 164 169 -535 536 0
-3 164 169 -535 -536 0
-46 -114 200 537 538 0
-46 -114 200 537 -538 0
-46 -114 200 -537 538 0
-46 -114 200 -537 -538 0
12 -46 -200 539 540 0
12 -46 -200 539 -540 0
12 -46 -200 -539 540 0
12 -46 -200 -539 -540 0
-12 -125 -200 541 542 0
-12 -125 -200 541 -542 0
-12 -125 -200 -541 542 0
-12 -125 -200 -541 -542 0
-12 73 81 543 544 0
-12 73 81 543 -544 0
-12 73 81 -543 544 0
-12 73 81 -543 -544 0
111 129 150 545 546 0
111 129 150 545 -546 0
111 129 150 -545 546 0
111 129 150 -545 -546 0
-3 125 134 547 548 0
-3 125 134 547 -548 0
-3 125 134 -547 548 0
-3 125 134 -547 -548 0
16 20 165 549 550 0
16 20 165 549 -550 0
16 20 165 -549 550 0
16 20 165 -549 -550 0
16 35 165 551 552 0
16 35 165 551 -552 0
16 35 165 -551 552 0
16 35 165 -551 -552 0
-17 51 -170 553 554 0
-17 51 -170 553 -554 0
-17 51 -170 -553 554 0
-17 51 -170 -553 -554 0
-35 -104 110 555 556 0
-35 -104 110 555 -556 0
-35 -104 110 -555 556 0
-35 -104 110 -555 -556 0
-35 -37 110 557 558 0
-35 -37 110 557 -558 0
-35 -37 110 -557 558 0
-35 -37 110 -557 -558 0
-2 119 134 559 560 0
-2 119 134 559 -560 0
-2 119 134 -559 560 0
-2 119 134 -559 -560 0
18 -33 187 561 562 0
18 -33 187 561 -562 0
18 -33 187 -561 562 0
18 -33 187 -561 -562 0
-49 -57 190 563 564 0
-49 -57 190 563 -564 0
-49 -57 190 -563 564 0
-49 -57 190 -563 -564 0
-49 -190 -199 565 566 0
-49 -190 -199 565 -566 0
-49 -190 -199 -565 566 0
-49 -190 -199 -565 -566 0
-74 -144 163 567 568 0
-74 -144 163 567 -568 0
-74 -144 163 -567 568 0
-74 -144 163 -567 -568 0
39 -67 200 569 570 0
39 -67 200 569 -570 0
39 -67 200 -569 570 0
39 -67 200 -569 -570 0
27 -58 170 571 572 0
27 -58 170 571 -572 0
27 -58 170 -571 572 0
27 -58 170 -571 -572 0
-2 -53 85 573 574 0
-2 -53 85 573 -574 0
-2 -53 85 -573 574 0
-2 -53 85 -573 -574 0
-82 180 -195 575 576 0
-82 180 -195 575 -576 0
-82 180 -195 -575 576 0
-82 180 -195 -575 -576 0
14 20 85 577 578 0
14 20 85 577 -578 0
14 20 85 -577 578 0
14 20 85 -577 -578 0
-41 -100 -110 579 580 0
-41 -100 -110 579 -580 0
-41 -100 -110 -579 580 0
-41 -100 -110 -579 -580 0
46 -127 163 581 582 0
46 -127 163 581 -582 0
46 -127 163 -581 582 0
46 -127 163 -581 -582 0
67 -130 141 583 584 0
67 -130 141 583 -584 0
67 -130 141 -583 584 0
67 -130 141 -583 -584 0
-12 -42 -142 585 586 0
-12 -42 -142 585 -586 0
-12 -42 -142 -585 586 0
-12 -42 -142 -585 -586 0
49 -134 -184 587 588 0
49 -134 -184 587 -588 0
49 -134 -184 -587 588 0
49 -134 -184 -587 -588 0
-22 -78 -130 589 590 0
-22 -78 -130 589 -590 0
-22 -78 -130 -589 590 0
-22 -78 -130 -589 -590 0
-36 -75 -197 591 592 0
-36 -75 -197 591 -592 0
-36 -75 -197 -591 592 0
-36 -75 -197 -591 -592 0
12 43 -193 593 594 0
12 43 -193 593 -594 0
12 43 -193 -593 594 0
12 43 -193 -593 -594 0
52 -84 -183 595 596 0
52 -84 -183 595 -596 0
52 -84 -183 -595 596 0
52 -84 -183 -595 -596 0
72 75 -85 597 598 0
72 75 -85 597 -598 0
72 75 -85 -597 598 0
72 75 -85 -597 -598 0
-25 -64 -167 599 600 0
-25 -64 -167 599 -600 0
-25 -64 -167 -599 600 0
-25 -64 -167 -599 -600 0
-142 -164 -167 601 602 0
-142 -164 -167 601 -602 0
-142 -164 -167 -601 602 0
-142 -164 -167 -601 -602 0
-25 -63 189 603 604 0
-25 -63 189 603 -604 0
-25 -63 189 -603 604 0
-25 -63 189 -603 -604 0
23 -53 -183 605 606 0
23 -53 -183 605 -606 0
23 -53 -183 -605 606 0
23 -53 -183 -605 -606 0
-18 -116 -157 607 608 0
-18 -116 -157 607 -608 0
-18 -116 -157 -607 608 0
-18 -116 -157 -607 -608 0
-40 101 168 609 610 0
-40 101 168 609 -610 0
-40 101 168 -609 610 0
-40 101 168 -609 -610 0
-18 34 84 611 612 0
-18 34 84 611 -612 0
-18 34 84 -611 612 0
-18 34 84 -611 -612 0
8 64 96 613 614 0
8 64 96 613 -614 0
8 64 96 -613 614 0
8 64 96 -613 -614 0
-32 64 -96 615 616 0
-32 64 -96 615 -616 0
-32 64 -96 -615 616 0
-32 64 -96 -615 -616 0
-52 61 150 617 618 0
-52 61 150 617 -618 0
-52 61 150 -617 618 0
-52 61 150 -617 -618 0
-52 89 -95 619 620 0
-52 89 -95 619 -620 0
-52 89 -95 -619 620 0
-52 89 -95 -619 -620 0
-89 -95 183 621 622 0
-89 -95 183 621 -622 0
-89 -95 183 -621 622 0
-89 -95 183 -621 -622 0
-116 140 -161 623 624 0
-116 140 -161 623 -624 0
-116 140 -161 -623 624 0
-116 140 -161 -623 -624 0
-21 82 160 625 626 0
-21 82 160 625 -626 0
-21 82 160 -625 626 0
-21 82 160 -625 -626 0
-30 40 -54 627 628 0
-30 40 -54 627 -628 0
-30 40 -54 -627 628 0
-30 40 -54 -627 -628 0
-76 143 146 629 630 0
-76 143 146 629 -630 0
-76 143 146 -629 630 0
-76 143 146 -629 -630 0
32 -76 146 631 632 0
32 -76 146 631 -632 0
32 -76 146 -631 632 0
32 -76 146 -631 -632 0
18 24 -152 633 634 0
18 24 -152 633 -634 0
18 24 -152 -633 634 0
18 24 -152 -633 -634 0
-14 125 -158 635 636 0
-14 125 -158 635 -636 0
-14 125 -158 -635 636 0
-14 125 -158 -635 -636 0
-42 59 -96 637 638 0
-42 59 -96 637 -638 0
-42 59 -96 -637 638 0
-42 59 -96 -637 -638 0
-4 48 102 639 640 0
-4 48 102 639 -640 0
-4 48 102 -639 640 0
-4 48 102 -639 -640 0
-48 102 103 641 642 0
-48 102 103 641 -642 0
-48 102 103 -641 642 0
-48 102 103 -641 -642 0
-72 -88 98 643 644 0
-72 -88 98 643 -644 0
-72 -88 98 -643 644 0
-72 -88 98 -643 -644 0
86 -123 -191 645 646 0
86 -123 -191 645 -646 0
86 -123 -191 -645 646 0
86 -123 -191 -645 -646 0
94 -183 -200 647 648 0
94 -183 -200 647 -648 0
94 -183 -200 -647 648 0
94 -183 -200 -647 -648 0
78 108 -109 649 650 0
78 108 -109 649 -650 0
78 108 -109 -649 650 0
78 108 -109 -649 -650 0
47 79 137 651 652 0
47 79 137 651 -652 0
47 79 137 -651 652 0
47 79 137 -651 -652 0
-102 -141 -146 653 654 0
-102 -141 -146 653 -654 0
-102 -141 -146 -653 654 0
-102 -141 -146 -653 -654 0
-29 37 -115 655 656 0
-29 37 -115 655 -656 0
-29 37 -115 -655 656 0
-29 37 -115 -655 -656 0
-37 -66 -115 657 658 0
-37 -66 -115 657 -658 0
-37 -66 -115 -657 658 0
-37 -66 -115 -657 -658 0
6 -139 -159 659 660 0
6 -139 -159 659 -660 0
6 -139 -159 -659 660 0
6 -139 -159 -659 -660 0
6 80 182 661 662 0
6 80 182 661 -662 0
6 80 182 -661 662 0
6 80 182 -661 -662 0
-100 -107 142 663 664 0
-100 -107 142 663 -664 0
-100 -107 142 -663 664 0
-100 -107 142 -663 -664 0
93 131 180 665 666 0
93 131 180 665 -666 0
93 131 180 -665 666 0
93 131 180 -665 -666 0
93 131 -141 667 668 0
93 131 -141 667 -668 0
93 131 -141 -667 668 0
93 131 -141 -667 -668 0
57 175 189 669 670 0
57 175 189 669 -670 0
57 175 189 -669 670 0
57 175 189 -669 -670 0
31 73 -82 671 672 0
31 73 -82 671 -672 0
31 73 -82 -671 672 0
31 73 -82 -671 -672 0
18 -36 -92 673 674 0
18 -36 -92 673 -674 0
18 -36 -92 -673 674 0
18 -36 -92 -673 -674 0
93 116 -158 675 676 0
93 116 -158 675 -676 0
93 116 -158 -675 676 0
93 116 -158 -675 -676 0
75 173 193 677 678 0
75 173 193 677 -678 0
75 173 193 -677 678 0
75 173 193 -677 -678 0
43 156 -165 679 680 0
43 156 -165 679 -680 0
43 156 -165 -679 680 0
43 156 -165 -679 -680 0
30 -99 -153 681 682 0
30 -99 -153 681 -682 0
30 -99 -153 -681 682 0
30 -99 -153 -681 -682 0
37 -51 196 683 684 0
37 -51 196 683 -684 0
37 -51 196 -683 684 0
37 -51 196 -683 -684 0
19 -51 -172 685 686 0
19 -51 -172 685 -686 0
19 -51 -172 -685 686 0
19 -51 -172 -685 -686 0
-140 141 -160 687 688 0
-140 141 -160 687 -688 0
-140 141 -160 -687 688 0
-140 141 -160 -687 -688 0
-9 -36 -162 689 690 0
-9 -36 -162 689 -690 0
-9 -36 -162 -689 690 0
-9 -36 -162 -689 -690 0
-22 72 -150 691 692 0
-22 72 -150 691 -692 0
-22 72 -150 -691 692 0
-22 72 -150 -691 -692 0
69 151 158 693 694 0
69 151 158 693 -694 0
69 151 158 -693 694 0
69 151 158 -693 -694 0
56 -113 -172 695 696 0
56 -113 -172 695 -696 0
56 -113 -172 -695 696 0
56 -113 -172 -695 -696 0
22 -129 -188 697 698 0
22 -129 -188 697 -698 0
22 -129 -188 -697 698 0
22 -129 -188 -697 -698 0
40 69 183 699 700 0
40 69 183 699 -700 0
40 69 183 -699 700 0
40 69 183 -699 -700 0
-69 -88 183 701 702 0
-69 -88 183 701 -702 0
-69 -88 183 -701 702 0
-69 -88 183 -701 -702 0
28 34 86 703 704 0
28 34 86 703 -704 0
28 34 86 -703 704 0
28 34 86 -703 -704 0
80 -140 173 705 706 0
80 -140 173 705 -706 0
80 -140 173 -705 706 0
80 -140 173 -705 -706 0
-89 160 196 707 708 0
-89 160 196 707 -708 0
-89 160 196 -707 708 0
-89 160 196 -707 -708 0
-96 130 -131 709 710 0
-96 130 -131 709 -710 0
-96 130 -131 -709 710 0
-96 130 -131 -709 -710 0
19 -92 -102 711 712 0
19 -92 -102 711 -712 0
19 -92 -102 -711 712 0
19 -92 -102 -711 -712 0
-9 -36 47 713 714 0
-9 -36 47 713 -714 0
-9 -36 47 -713 714 0
-9 -36 47 -713 -714 0
30 -55 117 715 716 0
30 -55 117 715 -716 0
30 -55 117 -715 716 0
30 -55 117 -715 -716 0
15 -159 187 717 718 0
15 -159 187 717 -718 0
15 -159 187 -717 718 0
15 -159 187 -717 -718 0
71 -177 190 719 720 0
71 -177 190 719 -720 0
71 -177 190 -719 720 0
71 -177 190 -719 -720 0
-9 49 -146 721 722 0
-9 49 -146 721 -722 0
-9 49 -146 -721 722 0
-9 49 -146 -721 -722 0
139 -181 -184 723 724 0
139 -181 -184 723 -724 0
139 -181 -184 -723 724 0
139 -181 -184 -723 -724 0
53 56 -131 725 726 0
53 56 -131 725 -726 0
53 56 -131 -725 726 0
53 56 -131 -725 -726 0
-111 -181 -193 727 728 0
-111 -181 -193 727 -728 0
-111 -181 -193 -727 728 0
-111 -181 -193 -727 -728 0
43 75 143 729 730 0
43 75 143 729 -730 0
43 75 143 -729 730 0
43 75 143 -729 -730 0
-17 73 101 731 732 0
-17 73 101 731 -732 0
-17 73 101 -731 732 0
-17 73 101 -731 -732 0
-30 -134 -146 733 734 0
-30 -134 -146 733 -734 0
-30 -134 -146 -733 734 0
-30 -134 -146 -733 -734 0
-93 -133 -160 735 736 0
-93 -133 -160 735 -736 0
-93 -133 -160 -735 736 0
-93 -133 -160 -735 -736 0
101 115 173 737 738 0
101 115 173 737 -738 0
101 115 173 -737 738 0
101 115 173 -737 -738 0
-75 80 99 739 740 0
-75 80 99 739 -740 0
-75 80 99 -739 740 0
-75 80 99 -739 -740 0
-45 114 -158 741 742 0
-45 114 -158 741 -742 0
-45 114 -158 -741 742 0
-45 114 -158 -741 -742 0
15 -170 181 743 744 0
15 -170 181 743 -744 0
15 -170 181 -743 744 0
15 -170 181 -743 -744 0
55 -80 -200 745 746 0
55 -80 -200 745 -746 0
55 -80 -200 -745 746 0
55 -80 -200 -745 -746 0
2 -47 82 747 748 0
2 -47 82 747 -748 0
2 -47 82 -747 748 0
2 -47 82 -747 -748 0
-35 -111 -174 749 750 0
-35 -111 -174 749 -750 0
-35 -111 -174 -749 750 0
-35 -111 -174 -749 -750 0
-56 -129 188 751 752 0
-56 -129 188 751 -752 0
-56 -129 188 -751 752 0
-56 -129 188 -751 -752 0
96 -150 -152 753 754 0
96 -150 -152 753 -754 0
96 -150 -152 -753 754 0
96 -150 -152 -753 -754 0
9 -157 -196 755 756 0
9 -157 -196 755 -756 0
9 -157 -196 -755 756 0
9 -157 -196 -755 -756 0
-34 36 99 757 758 0
-34 36 99 757 -758 0
-34 36 99 -757 758 0
-34 36 99 -757 -758 0
-5 58 -144 759 760 0
-5 58 -144 759 -760 0
-5 58 -144 -759 760 0
-5 58 -144 -759 -760 0
-5 88 -109 761 762 0
-5 88 -109 761 -762 0
-5 88 -109 -761 762 0
-5 88 -109 -761 -762 0
9 -111 116 763 764 0
9 -111 116 763 -764 0
9 -111 116 -763 764 0
9 -111 116 -763 -764 0
45 -79 107 765 766 0
45 -79 107 765 -766 0
45 -79 107 -765 766 0
45 -79 107 -765 -766 0
55 59 77 767 768 0
55 59 77 767 -768 0
55 59 77 -767 768 0
55 59 77 -767 -768 0
92 -124 -156 769 770 0
92 -124 -156 769 -770 0
92 -124 -156 -769 770 0
92 -124 -156 -769 -770 0
124 -134 142 771 772 0
124 -134 142 771 -772 0
124 -134 142 -771 772 0
124 -134 142 -771 -772 0
77 -110 -188 773 774 0
77 -110 -188 773 -774 0
77 -110 -188 -773 774 0
77 -110 -188 -773 -774 0
17 95 158 775 776 0
17 95 158 775 -776 0
17 95 158 -775 776 0
17 95 158 -775 -776 0
53 -68 -129 777 778 0
53 -68 -129 777 -778 0
53 -68 -129 -777 778 0
53 -68 -129 -777 -778 0
9 158 -168 779 780 0
9 158 -168 779 -780 0
9 158 -168 -779 780 0
9 158 -168 -779 -780 0
-30 172 -174 781 782 0
-30 172 -174 781 -782 0
-30 172 -174 -781 782 0
-30 172 -174 -781 -782 0
5 -61 -144 783 784 0
5 -61 -144 783 -784 0
5 -61 -144 -783 784 0
5 -61 -144 -783 -784 0
103 158 -163 785 786 0
103 158 -163 785 -786 0
103 158 -163 -785 786 0
103 158 -163 -785 -786 0
-58 -77 -177 787 788 0
-58 -77 -177 787 -788 0
-58 -77 -177 -787 788 0
-58 -77 -177 -787 -788 0
-79 -83 188 789 790 0
-79 -83 188 789 -790 0
-79 -83 188 -789 790 0
-79 -83 188 -789 -790 0
67 92 -163 791 792 0
67 92 -163 791 -792 0
67 92 -163 -791 792 0
67 92 -163 -791 -792 0
63 95 -163 793 794 0
63 95 -163 793 -794 0
63 95 -163 -793 794 0
63 95 -163 -793 -794 0
13 -55 -85 795 796 0
13 -55 -85 795 -796 0
13 -55 -85 -795 796 0
13 -55 -85 -795 -796 0
-86 -101 -131 797 798 0
-86 -101 -131 797 -798 0
-86 -101 -131 -797 798 0
-86 -101 -131 -797 -798 0
79 -188 195 799 800 0
79 -188 195 799 -800 0
79 -188 195 -799 800 0
79 -188 195 -799 -800 0
-23 162 -182 801 802 0
-23 162 -182 801 -802 0
-23 162 -182 -801 802 0
-23 162 -182 -801 -802 0
-33 -34 -86 803 804 0
-33 -34 -86 803 -804 0
-33 -34 -86 -803 804 0
-33 -34 -86 -803 -804 0
-16 -56 -80 805 806 0
-16 -56 -80 805 -806 0
-16 -56 -80 -805 806 0
-16 -56 -80 -805 -806 0
-12 36 181 807 808 0
-12 36 181 807 -808 0
-12 36 181 -807 808 0
-12 36 181 -807 -808 0
2 115 -196 809 810 0
2 115 -196 809 -810 0
2 115 -196 -809 810 0
2 115 -196 -809 -810 0
13 -86 172 811 812 0
13 -86 172 811 -812 0
13 -86 172 -811 812 0
13 -86 172 -811 -812 0
5 45 111 813 814 0
5 45 111 813 -814 0
5 45 111 -813 814 0
5 45 111 -813 -814 0
-80 -101 815 816 817 0
-80 -101 815 816 -817 0
-80 -101 815 -816 817 0
-80 -101 815 -816 -817 0
-80 -101 -815 816 817 0
-80 -101 -815 816 -817 0
-80 -101 -815 -816 817 0
-80 -101 -815 -816 -817 0
-33 67 -79 818 819 0
-33 67 -79 818 -819 0
-33 67 -79 -818 819 0
-33 67 -79 -818 -819 0
17 54 124 820 821 0
17 54 124 820 -821 0
17 54 124 -820 821 0
17 54 124 -820 -821 0
9 -47 139 822 823 0
9 -47 139 822 -823 0
9 -47 139 -822 823 0
9 -47 139 -822 -823 0
-16 -61 -169 824 825 0
-16 -61 -169 824 -825 0
-16 -61 -169 -824 825 0
-16 -61 -169 -824 -825 0
12 55 115 826 827 0
12 55 115 826 -827 0
12 55 115 -826 827 0
12 55 115 -826 -827 0
55 -57 -79 828 829 0
55 -57 -79 828 -829 0
55 -57 -79 -828 829 0
55 -57 -79 -828 -829 0
13 -85 88 830 831 0
13 -85 88 830 -831 0
13 -85 88 -830 831 0
13 -85 88 -830 -831 0
87 -93 -163 832 833 0
87 -93 -163 832 -833 0
87 -93 -163 -832 833 0
87 -93 -163 -832 -833 0
-67 95 -168 834 835 0
-67 95 -168 834 -835 0
-67 95 -168 -834 835 0
-67 95 -168 -834 -835 0
53 -56 143 836 837 0
53 -56 143 836 -837 0
53 -56 143 -836 837 0
53 -56 143 -836 -837 0
77 -80 838 839 840 0
77 -80 838 839 -840 0
77 -80 838 -839 840 0
77 -80 838 -839 -840 0
77 -80 -838 839 840 0
77 -80 -838 839 -840 0
77 -80 -838 -839 840 0
77 -80 -838 -839 -840 0
-30 -77 -101 841 842 0
-30 -77 -101 841 -842 0
-30 -77 -101 -841 842 0
-30 -77 -101 -841 -842 0
